1286
0	26	129	229	294
0	66	174	246	274
0	50	203	295	333
23	104	213	333	476
161	255	407	530	611
85	437	557	611	690
316	385	524	557	581
229	250	526	690	754
0	39	382	421	568
7	26	237	601	638
108	609	701	792	838
421	463	524	673	811
463	722	792	867	873
0	107	171	270	543
587	622	771	885	960
244	771	897	1003	1034
103	602	748	867	963
721	963	1066	1088	1093
165	274	977	1095	1191
814	832	981	996	1088
